42 376
2 8 10 12 13 14 20 23 24 25 27 31 32 33 39
7 8 9 11 12 15 16 20 21 24 25 26 36 39
0 3 5 9 10 12 13 15 16 17 20 22 23 29 31 33 36 39 40
2 7 12 14 15 17 19 20 22 24 26 28 29 31 36 37 38 39 40 41
5 8 9 10 17 18 21 22 26 27 28 29 30 32 35 37 39 40 41
2 4 6 8 9 13 14 15 16 18 19 23 24 25 27 28 29 30 31 32 33
5 8 10 11 16 20 25 26 27 28 32 33 34 35 37 40 41
1 3 8 11 12 13 16 18 21 22 23 24 25 26 27 28 29 31 32 33 34 35 38
0 1 4 5 6 7 9 14 15 18 20 21 23 26 27 28 38 40
1 2 4 5 8 10 13 14 16 18 21 23 24 27 32 34 35 37 38 39 40
0 2 4 6 9 14 15 16 19 20 21 25 28 32 37 39
1 6 7 13 16 19 20 25 28 29 30 33 34 35 36 37 39
0 1 2 3 7 13 17 23 24 25 26 27 29 30 36 38
0 2 5 7 9 11 12 15 17 19 20 25 29 30 35 36 41
0 3 5 8 9 10 15 18 19 22 24 26 27 28 29 31 33 35 37 38 39 41
1 2 3 5 8 10 13 14 17 22 25 27 28 30 34 37 38 39 40 41
1 2 5 6 7 9 10 11 24 26 29 32 35 38 39 40
2 3 4 12 13 15 18 19 20 23 30 35 36 39 41
4 5 7 8 9 14 17 21 23 24 26 27 28 29 31 38
3 5 10 11 13 14 17 23 24 25 26 29 30 36 37 40
0 1 2 3 6 8 10 11 13 17 24 25 26 27 28 30 32 33 36 38 40
1 4 7 8 9 10 18 23 24 25 28 29 32 33 36 38 39 40
2 3 4 7 14 15 23 28 29 34 37 38 39
0 2 5 7 8 9 12 17 18 19 21 22 33 35 41
0 1 3 5 7 9 12 14 16 18 19 20 21 25 26 27 30 32 37 39 40
0 1 5 6 7 10 11 12 13 15 19 20 21 24 26 32 34 36 37 41
1 3 4 6 7 8 12 14 16 18 19 20 24 25 28 30 33 36 37 38 39 40
0 4 5 6 7 8 9 12 14 15 18 20 24 28 29 30 31 37
3 4 5 6 7 8 10 11 14 15 18 20 21 22 26 27 29 32 33 35 37 39
2 3 4 5 7 11 12 13 14 16 18 19 21 22 27 28 32 36 38 40
4 5 11 12 13 15 17 19 20 24 26 27 31 34 36 37 38 41
0 2 3 5 7 14 18 27 30 32
0 4 5 6 7 9 10 16 20 21 24 25 28 29 31 33 34 37 38 39 40 41
0 2 5 6 7 11 14 20 21 23 26 28 32 35 36 40
6 7 9 11 15 22 25 30 32 35
4 6 7 9 11 13 14 16 17 23 28 33 34 37 38 39 41
1 2 3 11 12 13 17 19 20 21 25 26 29 30 33 37 38 40 41
3 4 6 9 10 11 14 15 19 22 24 25 26 27 28 30 32 35 36 38
3 7 8 9 12 14 15 16 18 20 21 22 26 29 30 32 35 36 37 40
0 1 2 3 4 9 10 11 14 15 16 17 21 22 24 26 28 32 35
2 3 4 6 8 9 15 16 19 20 21 24 26 29 32 33 36 38 41
3 4 6 13 14 15 17 23 25 30 32 35 36 40
